c Reduced graph for p41 generated by Cyril Grelier
p edge 115 888
e 1 2
e 1 5
e 1 10
e 1 25
e 1 26
e 1 28
e 1 31
e 1 32
e 1 73
e 1 84
e 1 92
e 1 93
e 1 96
e 1 100
e 1 104
e 1 106
e 1 109
e 1 110
e 1 112
e 2 5
e 2 10
e 2 13
e 2 25
e 2 26
e 2 29
e 2 30
e 2 31
e 2 32
e 2 49
e 2 50
e 2 52
e 2 56
e 2 59
e 2 98
e 2 109
e 2 110
e 3 4
e 3 6
e 3 18
e 3 22
e 3 29
e 3 48
e 3 54
e 3 62
e 3 63
e 3 64
e 3 65
e 3 70
e 3 79
e 3 92
e 3 94
e 3 111
e 3 115
e 4 5
e 4 8
e 4 29
e 4 33
e 4 40
e 4 46
e 4 60
e 4 62
e 4 63
e 4 70
e 4 92
e 4 94
e 4 101
e 5 8
e 5 10
e 5 25
e 5 26
e 5 31
e 5 32
e 5 33
e 5 40
e 5 46
e 5 60
e 5 101
e 5 109
e 5 110
e 6 7
e 6 18
e 6 22
e 6 24
e 6 39
e 6 40
e 6 48
e 6 54
e 6 56
e 6 57
e 6 64
e 6 65
e 6 73
e 6 74
e 6 79
e 6 85
e 6 103
e 6 111
e 6 115
e 7 21
e 7 24
e 7 36
e 7 39
e 7 40
e 7 42
e 7 44
e 7 56
e 7 57
e 7 72
e 7 73
e 7 74
e 7 85
e 7 99
e 7 103
e 8 9
e 8 18
e 8 19
e 8 33
e 8 40
e 8 46
e 8 60
e 8 96
e 8 101
e 8 102
e 9 18
e 9 19
e 9 20
e 9 23
e 9 81
e 9 86
e 9 89
e 9 96
e 9 102
e 9 103
e 9 114
e 10 12
e 10 16
e 10 25
e 10 26
e 10 31
e 10 32
e 10 63
e 10 67
e 10 107
e 10 109
e 10 110
e 11 12
e 11 25
e 11 35
e 11 36
e 11 41
e 11 46
e 11 47
e 11 50
e 11 51
e 11 61
e 11 74
e 11 77
e 11 80
e 11 87
e 11 102
e 11 111
e 11 112
e 12 16
e 12 35
e 12 36
e 12 46
e 12 47
e 12 50
e 12 51
e 12 63
e 12 67
e 12 107
e 12 111
e 12 112
e 13 27
e 13 29
e 13 30
e 13 37
e 13 38
e 13 49
e 13 50
e 13 52
e 13 56
e 13 59
e 13 68
e 13 69
e 13 98
e 13 114
e 13 115
e 14 15
e 14 33
e 14 34
e 14 41
e 14 42
e 14 48
e 14 49
e 14 51
e 14 55
e 14 68
e 14 70
e 14 75
e 14 78
e 14 85
e 14 88
e 14 89
e 14 106
e 14 107
e 14 108
e 14 109
e 15 19
e 15 24
e 15 26
e 15 33
e 15 34
e 15 38
e 15 41
e 15 42
e 15 48
e 15 49
e 15 82
e 15 88
e 15 89
e 15 91
e 15 106
e 15 107
e 15 108
e 16 17
e 16 22
e 16 23
e 16 43
e 16 61
e 16 63
e 16 67
e 16 97
e 16 107
e 17 22
e 17 23
e 17 34
e 17 43
e 17 45
e 17 58
e 17 61
e 17 97
e 17 105
e 17 110
e 18 19
e 18 22
e 18 48
e 18 54
e 18 64
e 18 65
e 18 79
e 18 96
e 18 102
e 18 111
e 18 115
e 19 24
e 19 26
e 19 38
e 19 82
e 19 91
e 19 96
e 19 102
e 20 21
e 20 23
e 20 28
e 20 59
e 20 60
e 20 81
e 20 86
e 20 89
e 20 90
e 20 91
e 20 103
e 20 114
e 21 28
e 21 36
e 21 42
e 21 44
e 21 59
e 21 60
e 21 72
e 21 90
e 21 91
e 21 99
e 22 23
e 22 43
e 22 48
e 22 54
e 22 61
e 22 64
e 22 65
e 22 79
e 22 97
e 22 111
e 22 115
e 23 43
e 23 61
e 23 81
e 23 86
e 23 89
e 23 97
e 23 103
e 23 114
e 24 26
e 24 38
e 24 39
e 24 40
e 24 56
e 24 57
e 24 73
e 24 74
e 24 82
e 24 85
e 24 91
e 24 103
e 25 26
e 25 31
e 25 32
e 25 41
e 25 61
e 25 74
e 25 77
e 25 80
e 25 87
e 25 102
e 25 109
e 25 110
e 26 31
e 26 32
e 26 38
e 26 82
e 26 91
e 26 109
e 26 110
e 27 31
e 27 37
e 27 38
e 27 39
e 27 62
e 27 66
e 27 68
e 27 69
e 27 71
e 27 88
e 27 90
e 27 113
e 27 114
e 27 115
e 28 59
e 28 60
e 28 73
e 28 84
e 28 90
e 28 91
e 28 92
e 28 93
e 28 96
e 28 100
e 28 104
e 28 106
e 28 112
e 29 30
e 29 49
e 29 50
e 29 52
e 29 56
e 29 59
e 29 62
e 29 63
e 29 70
e 29 92
e 29 94
e 29 98
e 30 49
e 30 50
e 30 52
e 30 56
e 30 59
e 30 65
e 30 67
e 30 93
e 30 95
e 30 98
e 31 32
e 31 39
e 31 62
e 31 66
e 31 71
e 31 88
e 31 90
e 31 109
e 31 110
e 31 113
e 32 35
e 32 37
e 32 57
e 32 76
e 32 95
e 32 97
e 32 108
e 32 109
e 32 110
e 33 34
e 33 40
e 33 41
e 33 42
e 33 46
e 33 48
e 33 49
e 33 60
e 33 88
e 33 89
e 33 101
e 33 106
e 33 107
e 33 108
e 34 41
e 34 42
e 34 45
e 34 48
e 34 49
e 34 58
e 34 88
e 34 89
e 34 105
e 34 106
e 34 107
e 34 108
e 34 110
e 35 36
e 35 37
e 35 46
e 35 47
e 35 50
e 35 51
e 35 57
e 35 76
e 35 95
e 35 97
e 35 108
e 35 111
e 35 112
e 36 42
e 36 44
e 36 46
e 36 47
e 36 50
e 36 51
e 36 72
e 36 99
e 36 111
e 36 112
e 37 38
e 37 57
e 37 68
e 37 69
e 37 76
e 37 95
e 37 97
e 37 108
e 37 114
e 37 115
e 38 68
e 38 69
e 38 82
e 38 91
e 38 114
e 38 115
e 39 40
e 39 56
e 39 57
e 39 62
e 39 66
e 39 71
e 39 73
e 39 74
e 39 85
e 39 88
e 39 90
e 39 103
e 39 113
e 40 46
e 40 56
e 40 57
e 40 60
e 40 73
e 40 74
e 40 85
e 40 101
e 40 103
e 41 42
e 41 48
e 41 49
e 41 61
e 41 74
e 41 77
e 41 80
e 41 87
e 41 88
e 41 89
e 41 102
e 41 106
e 41 107
e 41 108
e 42 44
e 42 48
e 42 49
e 42 72
e 42 88
e 42 89
e 42 99
e 42 106
e 42 107
e 42 108
e 43 47
e 43 53
e 43 61
e 43 69
e 43 83
e 43 94
e 43 97
e 44 45
e 44 54
e 44 55
e 44 72
e 44 87
e 44 99
e 44 100
e 44 101
e 44 113
e 45 54
e 45 55
e 45 58
e 45 87
e 45 100
e 45 101
e 45 105
e 45 110
e 45 113
e 46 47
e 46 50
e 46 51
e 46 60
e 46 101
e 46 111
e 46 112
e 47 50
e 47 51
e 47 53
e 47 69
e 47 83
e 47 94
e 47 111
e 47 112
e 48 49
e 48 54
e 48 64
e 48 65
e 48 79
e 48 88
e 48 89
e 48 106
e 48 107
e 48 108
e 48 111
e 48 115
e 49 50
e 49 52
e 49 56
e 49 59
e 49 88
e 49 89
e 49 98
e 49 106
e 49 107
e 49 108
e 50 51
e 50 52
e 50 56
e 50 59
e 50 98
e 50 111
e 50 112
e 51 55
e 51 68
e 51 70
e 51 75
e 51 78
e 51 85
e 51 109
e 51 111
e 51 112
e 52 53
e 52 56
e 52 59
e 52 71
e 52 72
e 52 75
e 52 76
e 52 79
e 52 80
e 52 81
e 52 98
e 52 104
e 52 105
e 53 69
e 53 71
e 53 72
e 53 75
e 53 76
e 53 79
e 53 80
e 53 81
e 53 83
e 53 94
e 53 104
e 53 105
e 54 55
e 54 64
e 54 65
e 54 79
e 54 87
e 54 100
e 54 101
e 54 111
e 54 113
e 54 115
e 55 68
e 55 70
e 55 75
e 55 78
e 55 85
e 55 87
e 55 100
e 55 101
e 55 109
e 55 113
e 56 57
e 56 59
e 56 73
e 56 74
e 56 85
e 56 98
e 56 103
e 57 73
e 57 74
e 57 76
e 57 85
e 57 95
e 57 97
e 57 103
e 57 108
e 58 77
e 58 78
e 58 82
e 58 83
e 58 105
e 58 110
e 59 60
e 59 90
e 59 91
e 59 98
e 60 90
e 60 91
e 60 101
e 61 74
e 61 77
e 61 80
e 61 87
e 61 97
e 61 102
e 62 63
e 62 66
e 62 70
e 62 71
e 62 88
e 62 90
e 62 92
e 62 94
e 62 113
e 63 67
e 63 70
e 63 92
e 63 94
e 63 107
e 64 65
e 64 66
e 64 79
e 64 84
e 64 86
e 64 98
e 64 99
e 64 111
e 64 115
e 65 67
e 65 79
e 65 93
e 65 95
e 65 111
e 65 115
e 66 71
e 66 84
e 66 86
e 66 88
e 66 90
e 66 98
e 66 99
e 66 113
e 67 93
e 67 95
e 67 107
e 68 69
e 68 70
e 68 75
e 68 78
e 68 85
e 68 109
e 68 114
e 68 115
e 69 83
e 69 94
e 69 114
e 69 115
e 70 75
e 70 78
e 70 85
e 70 92
e 70 94
e 70 109
e 71 72
e 71 75
e 71 76
e 71 79
e 71 80
e 71 81
e 71 88
e 71 90
e 71 104
e 71 105
e 71 113
e 72 75
e 72 76
e 72 79
e 72 80
e 72 81
e 72 99
e 72 104
e 72 105
e 73 74
e 73 84
e 73 85
e 73 92
e 73 93
e 73 96
e 73 100
e 73 103
e 73 104
e 73 106
e 73 112
e 74 77
e 74 80
e 74 85
e 74 87
e 74 102
e 74 103
e 75 76
e 75 78
e 75 79
e 75 80
e 75 81
e 75 85
e 75 104
e 75 105
e 75 109
e 76 79
e 76 80
e 76 81
e 76 95
e 76 97
e 76 104
e 76 105
e 76 108
e 77 78
e 77 80
e 77 82
e 77 83
e 77 87
e 77 102
e 78 82
e 78 83
e 78 85
e 78 109
e 79 80
e 79 81
e 79 104
e 79 105
e 79 111
e 79 115
e 80 81
e 80 87
e 80 102
e 80 104
e 80 105
e 81 86
e 81 89
e 81 103
e 81 104
e 81 105
e 81 114
e 82 83
e 82 91
e 83 94
e 84 86
e 84 92
e 84 93
e 84 96
e 84 98
e 84 99
e 84 100
e 84 104
e 84 106
e 84 112
e 85 103
e 85 109
e 86 89
e 86 98
e 86 99
e 86 103
e 86 114
e 87 100
e 87 101
e 87 102
e 87 113
e 88 89
e 88 90
e 88 106
e 88 107
e 88 108
e 88 113
e 89 103
e 89 106
e 89 107
e 89 108
e 89 114
e 90 91
e 90 113
e 92 93
e 92 94
e 92 96
e 92 100
e 92 104
e 92 106
e 92 112
e 93 95
e 93 96
e 93 100
e 93 104
e 93 106
e 93 112
e 95 97
e 95 108
e 96 100
e 96 102
e 96 104
e 96 106
e 96 112
e 97 108
e 98 99
e 100 101
e 100 104
e 100 106
e 100 112
e 100 113
e 101 113
e 103 114
e 104 105
e 104 106
e 104 112
e 105 110
e 106 107
e 106 108
e 106 112
e 107 108
e 109 110
e 111 112
e 111 115
e 114 115
